Geometry = vaspFormat {
<<< "pyridine-adatom-device.POSCAR"
}

Hamiltonian = xTB {
  Method = "GFN1-xTB"
  kPointsAndWeights = {
       0.    0.    0.       1
  }
ReadInitialCharges = Yes
}
Options = {
  WriteHS = Yes
}
Analysis = {
  WriteEigenvectors = Yes
  EigenvectorsAsText = Yes
}